************************************************************************
file with basedata            : mm19_.bas
initial value random generator: 937981177
************************************************************************
projects                      :  1
jobs (incl. supersource/sink ):  12
horizon                       :  92
RESOURCES
  - renewable                 :  2   R
  - nonrenewable              :  2   N
  - doubly constrained        :  0   D
************************************************************************
PROJECT INFORMATION:
pronr.  #jobs rel.date duedate tardcost  MPM-Time
    1     10      0       11        4       11
************************************************************************
PRECEDENCE RELATIONS:
jobnr.    #modes  #successors   successors
   1        1          3           2   3   4
   2        3          1          11
   3        3          3           5   8   9
   4        3          3           7   9  10
   5        3          1           6
   6        3          2           7  10
   7        3          1          11
   8        3          1          10
   9        3          1          12
  10        3          1          12
  11        3          1          12
  12        1          0        
************************************************************************
REQUESTS/DURATIONS:
jobnr. mode duration  R 1  R 2  N 1  N 2
------------------------------------------------------------------------
  1      1     0       0    0    0    0
  2      1     2       0    3    8    0
         2     3       7    0    0    9
         3     7       5    0    7    0
  3      1     1       0    3    8    0
         2     4       0    2    6    0
         3    10       2    0    0    7
  4      1     3       6    0    0    8
         2     8       4    0    0    5
         3     9       3    0    8    0
  5      1     1       0    8    8    0
         2     7       0    5    0    6
         3     8       0    4    8    0
  6      1     5       0    9    1    0
         2     9       0    4    1    0
         3    10       0    3    0    3
  7      1     1       3    0    7    0
         2     4       0    6    0    8
         3    10       0    2    0    6
  8      1     4       9    0    0   10
         2     5       0    6    0   10
         3    10       0    5    0    9
  9      1     6       6    0    0    5
         2     8       5    0    5    0
         3    10       4    0    3    0
 10      1     4       0   10    0    6
         2     7       0    9    4    0
         3    10       0    9    3    0
 11      1     1       0    2    1    0
         2     6       3    0    0    8
         3     8       1    0    0    6
 12      1     0       0    0    0    0
************************************************************************
RESOURCEAVAILABILITIES:
  R 1  R 2  N 1  N 2
   12   15   35   52
************************************************************************
MAXIMAL LAGS:
from  to  type  delay
    1   12   ES      0
    1    2   ES      0
    2   12   ES      0
    1    3   ES      0
    3   12   ES      0
    1    4   ES      0
    4   12   ES      0
    1    5   ES      0
    5   12   ES      0
    1    6   ES      0
    6   12   ES      0
    1    7   ES      0
    7   12   ES      0
    1    8   ES      0
    8   12   ES      0
    1    9   ES      0
    9   12   ES      0
    1   10   ES      0
   10   12   ES      0
    1   11   ES      0
   11   12   ES      0
    1   12   ES      0
    2   11   SS     -4
    2   11   SE     -1
    2   11   ES    -10
    2   11   EE      2
    3    5   SS     -9
    3    5   SE     12
    3    5   ES     -5
    3    5   EE     -6
    3    8   SS     11
    3    8   SE      6
    3    8   ES     10
    3    8   EE     -1
    3    9   SS     10
    3    9   SE      7
    3    9   ES      8
    3    9   EE      1
    4    7   SS     -7
    4    7   SE      7
    4    7   ES     -8
    4    7   EE     -6
    4    9   SS     -6
    4    9   SE    -11
    4    9   ES      6
    4    9   EE     -1
    4   10   SS      5
    4   10   SE     -4
    4   10   ES      7
    4   10   EE      5
    5    6   SS     -7
    5    6   SE     -2
    5    6   ES     10
    5    6   EE     -3
    6    7   SS     -3
    6    7   SE      6
    6    7   ES     -4
    6    7   EE      4
    6   10   SS      9
    6   10   SE     -9
    6   10   ES     -8
    6   10   EE     12
    7   11   SS      1
    7   11   SE    -11
    7   11   ES     -4
    7   11   EE      8
    8   10   SS     -8
    8   10   SE     10
    8   10   ES     -8
    8   10   EE     -5
************************************************************************
